50
    1   245   204
    2   406   448
    3   104   154
    4   371   363
    5   464   428
    6   256   294
    7   259   301
    8   122   108
    9   245   269
   10    23    70
   11     1     8
   12   194   183
   13   179   196
   14   101   116
   15    41    61
   16   284   301
   17   514   481
   18   361   396
   19   459   497
   20   477   458
   21   267   237
   22   377   344
   23   157   156
   24   313   331
   25   502   465
   26   145   132
   27    75    70
   28   121   136
   29   331   310
   30   206   171
   31   388   398
   32   288   300
   33   267   240
   34   104   117
   35   213   244
   36   126   109
   37   444   448
   38     8    53
   39   173   160
   40    81    59
   41   430   451
   42   420   402
   43   266   230
   44   142   134
   45   189   231
   46     6    47
   47   345   358
   48    64    26
   49   204   159
   50   210   168
4007
